011100010000000000000010000000001111110010001000001000001110011000000011000101010111101110010110000000110001010110111011110101100100110100010101101100000011010100000000001010010101010110111100000000001101010000011111101101100001101000100101100001000101100100011011100110101000001100100010100010011111010100111000110111011000100001000110100000000111000101000010101011010011000100100101110100110100100001101101011011000101010110011011101111100100110001101001011011100101010000001101110110010000100111010000010010000011011011101111101101111100100101100011100001111011111011010011101001011100111001101111101100111010001001000010010111000010111000100001001101000010001111100110011011011010110010011010101000000100011011110110110110011011010001110111010110110010100000010110100010010111110101011000100010000000110011011001001000001000110000101110100100100101011010101000001010111000011111110111110101010000100010101101111110010100111011110010111100000100001111101111011000011010011100101100000001100011000101111110111001001100101010010011001010110010001010100101101000001001010001110010111110011010000001100111111101001111110110111011011111101011110011101010